51
4 43 72 106 77 
3 103 91 10 
2 47 16 
3 5 59 99 
2 66 60 
3 33 62 54 
2 116 111 
2 112 108 
2 7 40 
3 56 80 104 
2 67 110 
2 13 4 
1 89 
2 66 60 
3 55 117 85 
2 17 89 
2 48 73 
3 31 119 3 
1 49 
3 76 90 58 
2 109 19 
2 1 50 
3 27 75 22 
2 24 44 
2 79 57 
3 74 23 96 
3 20 61 114 
2 65 35 
2 63 118 
3 28 71 21 
3 11 36 120 
3 64 102 78 
3 12 9 94 
3 17 38 15 
2 97 105 
2 25 45 
2 92 88 
3 81 14 26 
3 27 75 22 
3 2 29 113 
2 52 101 
1 86 
2 81 14 
1 87 
2 38 15 
2 18 70 
2 93 42 
3 82 8 6 
3 100 39 115 
2 68 37 
2 53 34 
